presolving:
(round 1, fast)       2500 del vars, 7500 del conss, 0 add conss, 4700 chg bounds, 0 chg sides, 0 chg coeffs, 0 upgd conss, 0 impls, 2739 clqs
(round 2, fast)       5000 del vars, 7500 del conss, 0 add conss, 4700 chg bounds, 0 chg sides, 0 chg coeffs, 0 upgd conss, 0 impls, 2739 clqs
   (0.2s) running MILP presolver
   (0.2s) MILP presolver found nothing
(round 3, exhaustive) 5000 del vars, 7500 del conss, 0 add conss, 4700 chg bounds, 0 chg sides, 0 chg coeffs, 2600 upgd conss, 0 impls, 2739 clqs
   (0.4s) probing: 51/2550 (2.0%) - 0 fixings, 0 aggregations, 0 implications, 0 bound changes
   (0.4s) probing aborted: 50/50 successive totally useless probings
   (0.5s) symmetry computation started: requiring (bin +, int -, cont +), (fixed: bin -, int +, cont -)
   (0.5s) no symmetry present
presolving (4 rounds: 4 fast, 2 medium, 2 exhaustive):
 5000 deleted vars, 7500 deleted constraints, 0 added constraints, 4700 tightened bounds, 0 added holes, 0 changed sides, 7 changed coefficients
 0 implications, 2794 cliques
presolved problem has 2550 variables (2550 bin, 0 int, 0 impl, 0 cont) and 2601 constraints
     50 constraints of type <knapsack>
   2550 constraints of type <setppc>
      1 constraints of type <linear>
Presolving Time: 0.40

 time | node  | left  |LP iter|LP it/n|mem/heur|mdpt |vars |cons |rows |cuts |sepa|confs|strbr|  dualbound   | primalbound  |  gap   | compl. 
  2.0s|     1 |     0 |  2890 |     - |    58M |   0 |2550 |2692 |2601 |   0 |  0 |  90 |   0 | 3.075295e+04 |      --      |    Inf | unknown
r 2.0s|     1 |     0 |  2890 |     - |shifting|   0 |2550 |2692 |2601 |   0 |  0 |  90 |   0 | 3.075295e+04 | 5.301732e+04 |  72.40%| unknown
  2.1s|     1 |     0 |  3014 |     - |    59M |   0 |2550 |2692 |2610 |   9 |  1 |  90 |   0 | 3.090183e+04 | 5.301732e+04 |  71.57%| unknown
r 2.1s|     1 |     0 |  3014 |     - |shifting|   0 |2550 |2692 |2610 |   9 |  1 |  90 |   0 | 3.090183e+04 | 4.639327e+04 |  50.13%| unknown
  2.3s|     1 |     0 |  3131 |     - |    60M |   0 |2550 |2692 |2618 |  17 |  2 |  90 |   0 | 3.096440e+04 | 4.639327e+04 |  49.83%| unknown
  2.4s|     1 |     0 |  3174 |     - |    60M |   0 |2550 |2692 |2626 |  25 |  3 |  90 |   0 | 3.097780e+04 | 4.639327e+04 |  49.76%| unknown
  2.9s|     1 |     0 |  3275 |     - |    61M |   0 |2550 |2692 |2635 |  34 |  4 |  90 |   0 | 3.102861e+04 | 4.639327e+04 |  49.52%| unknown
  3.1s|     1 |     0 |  3398 |     - |    62M |   0 |2550 |2692 |2642 |  41 |  5 |  90 |   0 | 3.110331e+04 | 4.639327e+04 |  49.16%| unknown
  3.2s|     1 |     0 |  3447 |     - |    63M |   0 |2550 |2692 |2646 |  45 |  6 |  90 |   0 | 3.111741e+04 | 4.639327e+04 |  49.09%| unknown
  3.4s|     1 |     0 |  3527 |     - |    63M |   0 |2550 |2692 |2650 |  49 |  7 |  90 |   0 | 3.116085e+04 | 4.639327e+04 |  48.88%| unknown
  3.5s|     1 |     0 |  3571 |     - |    64M |   0 |2550 |2692 |2654 |  53 |  8 |  90 |   0 | 3.117007e+04 | 4.639327e+04 |  48.84%| unknown
  3.7s|     1 |     0 |  3636 |     - |    65M |   0 |2550 |2692 |2660 |  59 |  9 |  90 |   0 | 3.118759e+04 | 4.639327e+04 |  48.76%| unknown
  3.9s|     1 |     0 |  3808 |     - |    65M |   0 |2550 |2692 |2666 |  65 | 10 |  90 |   0 | 3.123258e+04 | 4.639327e+04 |  48.54%| unknown
  4.0s|     1 |     0 |  3852 |     - |    65M |   0 |2550 |2692 |2673 |  72 | 11 |  90 |   0 | 3.123868e+04 | 4.639327e+04 |  48.51%| unknown
  4.1s|     1 |     0 |  3895 |     - |    66M |   0 |2550 |2692 |2677 |  76 | 12 |  90 |   0 | 3.124281e+04 | 4.639327e+04 |  48.49%| unknown
 time | node  | left  |LP iter|LP it/n|mem/heur|mdpt |vars |cons |rows |cuts |sepa|confs|strbr|  dualbound   | primalbound  |  gap   | compl. 
  4.3s|     1 |     0 |  3946 |     - |    66M |   0 |2550 |2692 |2680 |  79 | 13 |  90 |   0 | 3.125142e+04 | 4.639327e+04 |  48.45%| unknown
  4.4s|     1 |     0 |  3992 |     - |    66M |   0 |2550 |2692 |2684 |  83 | 14 |  90 |   0 | 3.125724e+04 | 4.639327e+04 |  48.42%| unknown
  4.5s|     1 |     0 |  4035 |     - |    67M |   0 |2550 |2692 |2685 |  84 | 15 |  90 |   0 | 3.126123e+04 | 4.639327e+04 |  48.41%| unknown
  4.7s|     1 |     0 |  4051 |     - |    67M |   0 |2550 |2692 |2682 |  88 | 16 |  90 |   0 | 3.126164e+04 | 4.639327e+04 |  48.40%| unknown
  4.8s|     1 |     0 |  4071 |     - |    67M |   0 |2550 |2692 |2685 |  91 | 17 |  90 |   0 | 3.126378e+04 | 4.639327e+04 |  48.39%| unknown
  4.8s|     1 |     0 |  4099 |     - |    67M |   0 |2550 |2692 |2686 |  92 | 18 |  90 |   0 | 3.126662e+04 | 4.639327e+04 |  48.38%| unknown
  5.0s|     1 |     0 |  4124 |     - |    67M |   0 |2550 |2692 |2689 |  95 | 19 |  90 |   0 | 3.126769e+04 | 4.639327e+04 |  48.37%| unknown
  5.1s|     1 |     0 |  4175 |     - |    68M |   0 |2550 |2692 |2693 |  99 | 20 |  90 |   0 | 3.127286e+04 | 4.639327e+04 |  48.35%| unknown
  5.2s|     1 |     0 |  4180 |     - |    68M |   0 |2550 |2692 |2695 | 101 | 21 |  90 |   0 | 3.127298e+04 | 4.639327e+04 |  48.35%| unknown
  5.3s|     1 |     0 |  4214 |     - |    68M |   0 |2550 |2692 |2688 | 103 | 22 |  90 |   0 | 3.127434e+04 | 4.639327e+04 |  48.34%| unknown
  5.5s|     1 |     0 |  4266 |     - |    68M |   0 |2550 |2692 |2692 | 107 | 24 |  90 |   0 | 3.127677e+04 | 4.639327e+04 |  48.33%| unknown
  5.5s|     1 |     0 |  4293 |     - |    68M |   0 |2550 |2692 |2694 | 109 | 25 |  90 |   0 | 3.127787e+04 | 4.639327e+04 |  48.33%| unknown
o 8.7s|     1 |     0 | 10414 |     - |feaspump|   0 |2550 |2692 |2694 | 109 | 27 |  95 |   0 | 3.127787e+04 | 3.268735e+04 |   4.51%| unknown
L 9.7s|     1 |     0 | 11642 |     - |    rens|   0 |2550 |2696 |2694 | 109 | 27 |  99 |   0 | 3.127787e+04 | 3.161450e+04 |   1.08%| unknown
  9.8s|     1 |     0 | 11642 |     - |    69M |   0 |2550 |2696 |2694 | 109 | 27 |  99 |   0 | 3.127787e+04 | 3.161450e+04 |   1.08%| unknown
 time | node  | left  |LP iter|LP it/n|mem/heur|mdpt |vars |cons |rows |cuts |sepa|confs|strbr|  dualbound   | primalbound  |  gap   | compl. 
  9.8s|     1 |     0 | 11642 |     - |    69M |   0 |2550 |2696 |1412 | 109 | 27 |  99 |   0 | 3.127787e+04 | 3.161450e+04 |   1.08%| unknown
 10.0s|     1 |     0 | 11690 |     - |    69M |   0 |2550 |1408 |1408 | 113 | 28 |  99 |   0 | 3.128002e+04 | 3.161450e+04 |   1.07%| unknown
 10.0s|     1 |     0 | 11690 |     - |    69M |   0 |2550 |1408 |1395 | 113 | 28 |  99 |   0 | 3.128002e+04 | 3.161450e+04 |   1.07%| unknown
 10.0s|     1 |     0 | 11691 |     - |    69M |   0 |2550 |1408 |1396 | 114 | 29 |  99 |   0 | 3.128005e+04 | 3.161450e+04 |   1.07%| unknown
 10.1s|     1 |     0 | 11691 |     - |    69M |   0 |2550 |1408 |1395 | 114 | 29 |  99 |   0 | 3.128005e+04 | 3.161450e+04 |   1.07%| unknown
(run 1, node 1) restarting after 1303 global fixings of integer variables

(restart) converted 62 cuts from the global cut pool into linear constraints

presolving:
(round 1, fast)       1303 del vars, 80 del conss, 0 add conss, 0 chg bounds, 0 chg sides, 305 chg coeffs, 0 upgd conss, 0 impls, 1326 clqs
   (10.1s) running MILP presolver
   (10.1s) MILP presolver found nothing
(round 2, medium)     1303 del vars, 89 del conss, 8 add conss, 0 chg bounds, 0 chg sides, 305 chg coeffs, 0 upgd conss, 0 impls, 1327 clqs
(round 3, exhaustive) 1303 del vars, 89 del conss, 8 add conss, 0 chg bounds, 0 chg sides, 305 chg coeffs, 57 upgd conss, 0 impls, 1327 clqs
(round 4, exhaustive) 1303 del vars, 90 del conss, 8 add conss, 0 chg bounds, 0 chg sides, 330 chg coeffs, 57 upgd conss, 0 impls, 1330 clqs
presolving (5 rounds: 5 fast, 4 medium, 3 exhaustive):
 1303 deleted vars, 91 deleted constraints, 8 added constraints, 0 tightened bounds, 0 added holes, 0 changed sides, 330 changed coefficients
 0 implications, 1330 cliques
presolved problem has 1247 variables (1247 bin, 0 int, 0 impl, 0 cont) and 1269 constraints
     95 constraints of type <knapsack>
   1163 constraints of type <setppc>
      6 constraints of type <linear>
      5 constraints of type <logicor>
Presolving Time: 0.48
transformed 2/4 original solutions to the transformed problem space

 time | node  | left  |LP iter|LP it/n|mem/heur|mdpt |vars |cons |rows |cuts |sepa|confs|strbr|  dualbound   | primalbound  |  gap   | compl. 
 10.6s|     1 |     0 | 13759 |     - |    71M |   0 |1247 |1269 |1264 |   0 |  0 |  99 |   0 | 3.128636e+04 | 3.161450e+04 |   1.05%| unknown
 10.7s|     1 |     0 | 13759 |     - |    71M |   0 |1247 |1269 | 984 |   0 |  0 |  99 |   0 | 3.128636e+04 | 3.161450e+04 |   1.05%| unknown
 10.7s|     1 |     0 | 13791 |     - |    71M |   0 |1247 | 989 | 985 |   7 |  1 |  99 |   0 | 3.128966e+04 | 3.161450e+04 |   1.04%| unknown
 10.7s|     1 |     0 | 13791 |     - |    71M |   0 |1247 | 989 | 975 |   7 |  1 |  99 |   0 | 3.128966e+04 | 3.161450e+04 |   1.04%| unknown
 10.8s|     1 |     0 | 13829 |     - |    71M |   0 |1247 | 973 | 982 |  14 |  2 |  99 |   0 | 3.129379e+04 | 3.161450e+04 |   1.02%| unknown
 10.9s|     1 |     0 | 13829 |     - |    71M |   0 |1247 | 973 | 975 |  14 |  2 |  99 |   0 | 3.129379e+04 | 3.161450e+04 |   1.02%| unknown
 10.9s|     1 |     0 | 13860 |     - |    71M |   0 |1247 | 966 | 980 |  19 |  3 |  99 |   0 | 3.129609e+04 | 3.161450e+04 |   1.02%| unknown
 10.9s|     1 |     0 | 13860 |     - |    71M |   0 |1247 | 966 | 969 |  19 |  3 |  99 |   0 | 3.129609e+04 | 3.161450e+04 |   1.02%| unknown
 11.0s|     1 |     0 | 13878 |     - |    71M |   0 |1247 | 955 | 973 |  24 |  4 |  99 |   0 | 3.129801e+04 | 3.161450e+04 |   1.01%| unknown
 11.0s|     1 |     0 | 13878 |     - |    71M |   0 |1247 | 955 | 968 |  24 |  4 |  99 |   0 | 3.129801e+04 | 3.161450e+04 |   1.01%| unknown
 11.1s|     1 |     0 | 13906 |     - |    72M |   0 |1247 | 949 | 972 |  29 |  5 |  99 |   0 | 3.130012e+04 | 3.161450e+04 |   1.00%| unknown
 11.2s|     1 |     0 | 13906 |     - |    72M |   0 |1247 | 949 | 970 |  29 |  5 |  99 |   0 | 3.130012e+04 | 3.161450e+04 |   1.00%| unknown
 11.2s|     1 |     0 | 13924 |     - |    72M |   0 |1247 | 947 | 971 |  30 |  6 |  99 |   0 | 3.130094e+04 | 3.161450e+04 |   1.00%| unknown
 11.2s|     1 |     0 | 13924 |     - |    72M |   0 |1247 | 947 | 969 |  30 |  6 |  99 |   0 | 3.130094e+04 | 3.161450e+04 |   1.00%| unknown
 11.3s|     1 |     0 | 13938 |     - |    72M |   0 |1247 | 945 | 971 |  32 |  7 |  99 |   0 | 3.130210e+04 | 3.161450e+04 |   1.00%| unknown
 time | node  | left  |LP iter|LP it/n|mem/heur|mdpt |vars |cons |rows |cuts |sepa|confs|strbr|  dualbound   | primalbound  |  gap   | compl. 
 11.3s|     1 |     0 | 13938 |     - |    72M |   0 |1247 | 945 | 970 |  32 |  7 |  99 |   0 | 3.130210e+04 | 3.161450e+04 |   1.00%| unknown
 11.4s|     1 |     0 | 13970 |     - |    72M |   0 |1247 | 944 | 971 |  33 |  8 |  99 |   0 | 3.130393e+04 | 3.161450e+04 |   0.99%| unknown
 11.4s|     1 |     0 | 13970 |     - |    72M |   0 |1247 | 944 | 967 |  33 |  8 |  99 |   0 | 3.130393e+04 | 3.161450e+04 |   0.99%| unknown
 11.5s|     1 |     0 | 13980 |     - |    72M |   0 |1247 | 940 | 970 |  36 |  9 |  99 |   0 | 3.130414e+04 | 3.161450e+04 |   0.99%| unknown
 11.6s|     1 |     0 | 13988 |     - |    72M |   0 |1247 | 940 | 971 |  37 | 10 |  99 |   0 | 3.130445e+04 | 3.161450e+04 |   0.99%| unknown
 11.6s|     1 |     0 | 13988 |     - |    72M |   0 |1247 | 940 | 970 |  37 | 10 |  99 |   0 | 3.130445e+04 | 3.161450e+04 |   0.99%| unknown
 11.7s|     1 |     0 | 14024 |     - |    72M |   0 |1247 | 939 | 971 |  38 | 11 |  99 |   0 | 3.130616e+04 | 3.161450e+04 |   0.98%| unknown
 11.7s|     1 |     0 | 14024 |     - |    72M |   0 |1247 | 939 | 970 |  38 | 11 |  99 |   0 | 3.130616e+04 | 3.161450e+04 |   0.98%| unknown
 11.8s|     1 |     0 | 14032 |     - |    72M |   0 |1247 | 938 | 945 |  39 | 12 |  99 |   0 | 3.130623e+04 | 3.161450e+04 |   0.98%| unknown
 11.8s|     1 |     0 | 14072 |     - |    72M |   0 |1247 | 938 | 947 |  41 | 13 |  99 |   0 | 3.130925e+04 | 3.161450e+04 |   0.97%| unknown
 11.9s|     1 |     0 | 14072 |     - |    72M |   0 |1247 | 938 | 946 |  41 | 13 |  99 |   0 | 3.130925e+04 | 3.161450e+04 |   0.97%| unknown
 11.9s|     1 |     0 | 14078 |     - |    72M |   0 |1247 | 937 | 947 |  42 | 14 |  99 |   0 | 3.130941e+04 | 3.161450e+04 |   0.97%| unknown
 12.0s|     1 |     0 | 14103 |     - |    72M |   0 |1247 | 937 | 948 |  43 | 15 |  99 |   0 | 3.131147e+04 | 3.161450e+04 |   0.97%| unknown
 12.0s|     1 |     0 | 14103 |     - |    72M |   0 |1247 | 937 | 947 |  43 | 15 |  99 |   0 | 3.131147e+04 | 3.161450e+04 |   0.97%| unknown
 12.0s|     1 |     0 | 14109 |     - |    72M |   0 |1247 | 936 | 949 |  45 | 16 |  99 |   0 | 3.131151e+04 | 3.161450e+04 |   0.97%| unknown
 time | node  | left  |LP iter|LP it/n|mem/heur|mdpt |vars |cons |rows |cuts |sepa|confs|strbr|  dualbound   | primalbound  |  gap   | compl. 
 12.1s|     1 |     0 | 14126 |     - |    72M |   0 |1247 | 936 | 950 |  46 | 17 |  99 |   0 | 3.131212e+04 | 3.161450e+04 |   0.97%| unknown
 12.1s|     1 |     0 | 14126 |     - |    72M |   0 |1247 | 936 | 949 |  46 | 17 |  99 |   0 | 3.131212e+04 | 3.161450e+04 |   0.97%| unknown
 12.1s|     1 |     0 | 14132 |     - |    72M |   0 |1247 | 935 | 930 |  47 | 18 |  99 |   0 | 3.131224e+04 | 3.161450e+04 |   0.97%| unknown
 12.2s|     1 |     0 | 14138 |     - |    72M |   0 |1247 | 935 | 931 |  48 | 19 |  99 |   0 | 3.131226e+04 | 3.161450e+04 |   0.97%| unknown
 12.2s|     1 |     0 | 14148 |     - |    72M |   0 |1247 | 935 | 932 |  49 | 20 |  99 |   0 | 3.131257e+04 | 3.161450e+04 |   0.96%| unknown
 12.2s|     1 |     0 | 14148 |     - |    72M |   0 |1247 | 935 | 931 |  49 | 20 |  99 |   0 | 3.131257e+04 | 3.161450e+04 |   0.96%| unknown
(run 2, node 1) restarting after 412 global fixings of integer variables

(restart) converted 31 cuts from the global cut pool into linear constraints

presolving:
(round 1, fast)       412 del vars, 0 del conss, 0 add conss, 0 chg bounds, 3 chg sides, 78 chg coeffs, 0 upgd conss, 0 impls, 836 clqs
   (12.7s) running MILP presolver
   (12.8s) MILP presolver found nothing
(round 2, medium)     412 del vars, 14 del conss, 11 add conss, 0 chg bounds, 3 chg sides, 78 chg coeffs, 0 upgd conss, 0 impls, 837 clqs
(round 3, exhaustive) 412 del vars, 14 del conss, 11 add conss, 0 chg bounds, 3 chg sides, 78 chg coeffs, 31 upgd conss, 0 impls, 837 clqs
(round 4, exhaustive) 412 del vars, 15 del conss, 11 add conss, 0 chg bounds, 3 chg sides, 82 chg coeffs, 31 upgd conss, 0 impls, 837 clqs
presolving (5 rounds: 5 fast, 4 medium, 3 exhaustive):
 412 deleted vars, 15 deleted constraints, 11 added constraints, 0 tightened bounds, 0 added holes, 3 changed sides, 82 changed coefficients
 0 implications, 837 cliques
presolved problem has 835 variables (835 bin, 0 int, 0 impl, 0 cont) and 898 constraints
    114 constraints of type <knapsack>
    771 constraints of type <setppc>
      6 constraints of type <linear>
      7 constraints of type <logicor>
Presolving Time: 0.56
transformed 3/5 original solutions to the transformed problem space

 time | node  | left  |LP iter|LP it/n|mem/heur|mdpt |vars |cons |rows |cuts |sepa|confs|strbr|  dualbound   | primalbound  |  gap   | compl. 
 13.1s|     1 |     0 | 16255 |     - |    73M |   0 | 835 | 898 | 891 |   0 |  0 | 101 |   0 | 3.131257e+04 | 3.161450e+04 |   0.96%| unknown
 13.1s|     1 |     0 | 16255 |     - |    73M |   0 | 835 | 898 | 822 |   0 |  0 | 101 |   0 | 3.131257e+04 | 3.161450e+04 |   0.96%| unknown
 13.4s|     1 |     0 | 16298 |     - |    77M |   0 | 835 | 829 | 823 |   3 |  1 | 101 |   0 | 3.131257e+04 | 3.161450e+04 |   0.96%| unknown
 13.4s|     1 |     0 | 16298 |     - |    77M |   0 | 835 | 829 | 822 |   3 |  1 | 101 |   0 | 3.131257e+04 | 3.161450e+04 |   0.96%| unknown
 13.6s|     1 |     0 | 16309 |     - |    80M |   0 | 835 | 826 | 822 |   4 |  2 | 101 |   0 | 3.131299e+04 | 3.161450e+04 |   0.96%| unknown
 13.6s|     1 |     0 | 16309 |     - |    80M |   0 | 835 | 826 | 821 |   4 |  2 | 101 |   0 | 3.131299e+04 | 3.161450e+04 |   0.96%| unknown
 13.8s|     1 |     0 | 16336 |     - |    83M |   0 | 835 | 824 | 823 |   6 |  3 | 101 |   0 | 3.131505e+04 | 3.161450e+04 |   0.96%| unknown
 13.8s|     1 |     0 | 16336 |     - |    83M |   0 | 835 | 824 | 821 |   6 |  3 | 101 |   0 | 3.131505e+04 | 3.161450e+04 |   0.96%| unknown
 14.0s|     1 |     0 | 16362 |     - |    86M |   0 | 835 | 822 | 822 |   7 |  4 | 101 |   0 | 3.131547e+04 | 3.161450e+04 |   0.95%| unknown
 14.3s|     1 |     0 | 16382 |     - |    89M |   0 | 835 | 822 | 825 |  10 |  5 | 101 |   0 | 3.131620e+04 | 3.161450e+04 |   0.95%| unknown
 14.3s|     1 |     0 | 16382 |     - |    89M |   0 | 835 | 822 | 825 |  10 |  5 | 101 |   0 | 3.131620e+04 | 3.161450e+04 |   0.95%| unknown
 14.7s|     1 |     0 | 16407 |     - |    93M |   0 | 835 | 822 | 827 |  12 |  6 | 101 |   0 | 3.131691e+04 | 3.161450e+04 |   0.95%| unknown
 15.0s|     1 |     0 | 16456 |     - |    96M |   0 | 835 | 822 | 828 |  13 |  7 | 101 |   0 | 3.131846e+04 | 3.161450e+04 |   0.95%| unknown
 15.3s|     1 |     0 | 16482 |     - |    99M |   0 | 835 | 822 | 831 |  16 |  8 | 101 |   0 | 3.131868e+04 | 3.161450e+04 |   0.94%| unknown
 15.5s|     1 |     0 | 16507 |     - |   102M |   0 | 835 | 822 | 833 |  18 |  9 | 101 |   0 | 3.131916e+04 | 3.161450e+04 |   0.94%| unknown
 time | node  | left  |LP iter|LP it/n|mem/heur|mdpt |vars |cons |rows |cuts |sepa|confs|strbr|  dualbound   | primalbound  |  gap   | compl. 
 15.8s|     1 |     0 | 16534 |     - |   104M |   0 | 835 | 822 | 835 |  20 | 10 | 101 |   0 | 3.131942e+04 | 3.161450e+04 |   0.94%| unknown
 15.9s|     1 |     0 | 16544 |     - |   105M |   0 | 835 | 822 | 836 |  21 | 11 | 101 |   0 | 3.131955e+04 | 3.161450e+04 |   0.94%| unknown
 16.0s|     1 |     0 | 16562 |     - |   105M |   0 | 835 | 822 | 837 |  22 | 12 | 101 |   0 | 3.132023e+04 | 3.161450e+04 |   0.94%| unknown
 16.1s|     1 |     0 | 16570 |     - |   105M |   0 | 835 | 822 | 839 |  24 | 13 | 101 |   0 | 3.132033e+04 | 3.161450e+04 |   0.94%| unknown
(run 3, node 1) restarting after 121 global fixings of integer variables

(restart) converted 20 cuts from the global cut pool into linear constraints

presolving:
(round 1, fast)       141 del vars, 21 del conss, 0 add conss, 0 chg bounds, 0 chg sides, 12 chg coeffs, 0 upgd conss, 0 impls, 698 clqs
   (16.5s) running MILP presolver
   (16.5s) MILP presolver found nothing
(round 2, exhaustive) 141 del vars, 21 del conss, 0 add conss, 0 chg bounds, 0 chg sides, 12 chg coeffs, 9 upgd conss, 0 impls, 698 clqs
(round 3, exhaustive) 141 del vars, 22 del conss, 0 add conss, 0 chg bounds, 0 chg sides, 13 chg coeffs, 9 upgd conss, 0 impls, 698 clqs
presolving (4 rounds: 4 fast, 3 medium, 3 exhaustive):
 141 deleted vars, 22 deleted constraints, 0 added constraints, 0 tightened bounds, 0 added holes, 0 changed sides, 13 changed coefficients
 0 implications, 698 cliques
presolved problem has 694 variables (694 bin, 0 int, 0 impl, 0 cont) and 780 constraints
    119 constraints of type <knapsack>
    638 constraints of type <setppc>
     17 constraints of type <linear>
      6 constraints of type <logicor>
Presolving Time: 0.62
transformed 4/6 original solutions to the transformed problem space

 time | node  | left  |LP iter|LP it/n|mem/heur|mdpt |vars |cons |rows |cuts |sepa|confs|strbr|  dualbound   | primalbound  |  gap   | compl. 
 16.7s|     1 |     0 | 18387 |     - |    84M |   0 | 694 | 780 | 774 |   0 |  0 | 102 |   0 | 3.132033e+04 | 3.161450e+04 |   0.94%| unknown
 16.8s|     1 |     0 | 18387 |     - |    84M |   0 | 694 | 780 | 653 |   0 |  0 | 102 |   0 | 3.132033e+04 | 3.161450e+04 |   0.94%| unknown
 17.0s|     1 |     0 | 18415 |     - |    87M |   0 | 694 | 659 | 650 |   2 |  1 | 102 |   0 | 3.132033e+04 | 3.161450e+04 |   0.94%| unknown
 17.2s|     1 |     0 | 18421 |     - |    89M |   0 | 694 | 655 | 654 |   6 |  2 | 102 |   0 | 3.132033e+04 | 3.161450e+04 |   0.94%| unknown
 17.4s|     1 |     0 | 18438 |     - |    92M |   0 | 694 | 655 | 656 |   8 |  3 | 102 |   0 | 3.132033e+04 | 3.161450e+04 |   0.94%| unknown
 17.4s|     1 |     0 | 18438 |     - |    92M |   0 | 694 | 655 | 653 |   8 |  3 | 102 |   0 | 3.132033e+04 | 3.161450e+04 |   0.94%| unknown
 17.7s|     1 |     0 | 18459 |     - |    93M |   0 | 694 | 652 | 655 |  10 |  4 | 102 |   0 | 3.132094e+04 | 3.161450e+04 |   0.94%| unknown
 17.9s|     1 |     0 | 18487 |     - |    95M |   0 | 694 | 652 | 659 |  14 |  5 | 102 |   0 | 3.132169e+04 | 3.161450e+04 |   0.93%| unknown
 18.1s|     1 |     0 | 18504 |     - |    99M |   0 | 694 | 652 | 663 |  18 |  6 | 102 |   0 | 3.132220e+04 | 3.161450e+04 |   0.93%| unknown
 18.1s|     1 |     0 | 18504 |     - |    99M |   0 | 694 | 652 | 660 |  18 |  6 | 102 |   0 | 3.132220e+04 | 3.161450e+04 |   0.93%| unknown
 18.3s|     1 |     0 | 18515 |     - |   100M |   0 | 694 | 649 | 663 |  21 |  7 | 102 |   0 | 3.132243e+04 | 3.161450e+04 |   0.93%| unknown
 18.6s|     1 |     0 | 18521 |     - |   103M |   0 | 694 | 649 | 664 |  22 |  8 | 102 |   0 | 3.132272e+04 | 3.161450e+04 |   0.93%| unknown
 18.8s|     1 |     0 | 18529 |     - |   105M |   0 | 694 | 649 | 665 |  23 |  9 | 102 |   0 | 3.132317e+04 | 3.161450e+04 |   0.93%| unknown
 19.0s|     1 |     0 | 18547 |     - |   108M |   0 | 694 | 649 | 614 |  25 | 10 | 102 |   0 | 3.132354e+04 | 3.161450e+04 |   0.93%| unknown
 19.1s|     1 |     0 | 18559 |     - |   108M |   0 | 694 | 649 | 616 |  27 | 11 | 102 |   0 | 3.132371e+04 | 3.161450e+04 |   0.93%| unknown
(run 4, node 1) restarting after 175 global fixings of integer variables

(restart) converted 23 cuts from the global cut pool into linear constraints

presolving:
(round 1, fast)       175 del vars, 0 del conss, 0 add conss, 0 chg bounds, 1 chg sides, 7 chg coeffs, 0 upgd conss, 0 impls, 520 clqs
   (19.3s) running MILP presolver
   (19.3s) MILP presolver found nothing
(round 2, exhaustive) 175 del vars, 0 del conss, 0 add conss, 0 chg bounds, 1 chg sides, 7 chg coeffs, 13 upgd conss, 0 impls, 520 clqs
(round 3, exhaustive) 175 del vars, 0 del conss, 0 add conss, 0 chg bounds, 1 chg sides, 10 chg coeffs, 13 upgd conss, 0 impls, 520 clqs
(round 4, exhaustive) 175 del vars, 1 del conss, 0 add conss, 0 chg bounds, 1 chg sides, 10 chg coeffs, 13 upgd conss, 0 impls, 520 clqs
presolving (5 rounds: 5 fast, 4 medium, 4 exhaustive):
 175 deleted vars, 1 deleted constraints, 0 added constraints, 0 tightened bounds, 0 added holes, 1 changed sides, 10 changed coefficients
 0 implications, 520 cliques
presolved problem has 519 variables (519 bin, 0 int, 0 impl, 0 cont) and 629 constraints
    127 constraints of type <knapsack>
    468 constraints of type <setppc>
     27 constraints of type <linear>
      7 constraints of type <logicor>
Presolving Time: 0.66
transformed 5/7 original solutions to the transformed problem space

 time | node  | left  |LP iter|LP it/n|mem/heur|mdpt |vars |cons |rows |cuts |sepa|confs|strbr|  dualbound   | primalbound  |  gap   | compl. 
 19.5s|     1 |     0 | 20216 |     - |   100M |   0 | 519 | 629 | 622 |   0 |  0 | 104 |   0 | 3.132384e+04 | 3.161450e+04 |   0.93%| unknown
 19.5s|     1 |     0 | 20216 |     - |   100M |   0 | 519 | 629 | 597 |   0 |  0 | 104 |   0 | 3.132384e+04 | 3.161450e+04 |   0.93%| unknown
 19.7s|     1 |     0 | 20227 |     - |   100M |   0 | 519 | 604 | 599 |   2 |  1 | 104 |   0 | 3.132420e+04 | 3.161450e+04 |   0.93%| unknown
 19.9s|     1 |     0 | 20273 |     - |   100M |   0 | 519 | 604 | 600 |   3 |  2 | 104 |   0 | 3.132581e+04 | 3.161450e+04 |   0.92%| unknown
 20.1s|     1 |     0 | 20303 |     - |   100M |   0 | 519 | 604 | 604 |   7 |  3 | 104 |   0 | 3.132659e+04 | 3.161450e+04 |   0.92%| unknown
 20.3s|     1 |     0 | 20317 |     - |   100M |   0 | 519 | 604 | 606 |   9 |  4 | 104 |   0 | 3.132672e+04 | 3.161450e+04 |   0.92%| unknown
 20.5s|     1 |     0 | 20333 |     - |   100M |   0 | 519 | 604 | 608 |  11 |  5 | 104 |   0 | 3.132683e+04 | 3.161450e+04 |   0.92%| unknown
 20.7s|     1 |     0 | 20374 |     - |   100M |   0 | 519 | 604 | 611 |  14 |  6 | 104 |   0 | 3.132749e+04 | 3.161450e+04 |   0.92%| unknown
 20.8s|     1 |     0 | 20391 |     - |   101M |   0 | 519 | 604 | 613 |  16 |  7 | 104 |   0 | 3.132768e+04 | 3.161450e+04 |   0.92%| unknown
 21.1s|     1 |     0 | 20416 |     - |   103M |   0 | 519 | 604 | 614 |  17 |  8 | 104 |   0 | 3.132790e+04 | 3.161450e+04 |   0.91%| unknown
 21.3s|     1 |     0 | 20439 |     - |   104M |   0 | 519 | 604 | 616 |  19 |  9 | 104 |   0 | 3.132799e+04 | 3.161450e+04 |   0.91%| unknown
 21.5s|     1 |     0 | 20484 |     - |   108M |   0 | 519 | 604 | 617 |  20 | 10 | 104 |   0 | 3.132856e+04 | 3.161450e+04 |   0.91%| unknown
 21.5s|     1 |     0 | 20484 |     - |   108M |   0 | 519 | 604 | 617 |  20 | 10 | 104 |   0 | 3.132856e+04 | 3.161450e+04 |   0.91%| unknown
 21.6s|     1 |     0 | 20496 |     - |   108M |   0 | 519 | 604 | 622 |  25 | 11 | 104 |   0 | 3.132864e+04 | 3.161450e+04 |   0.91%| unknown
 22.3s|     1 |     2 | 20655 |     - |   108M |   0 | 519 | 605 | 622 |  25 | 11 | 108 |  19 | 3.134824e+04 | 3.161450e+04 |   0.85%| unknown
(run 5, node 1) restarting after 29 global fixings of integer variables

(restart) converted 23 cuts from the global cut pool into linear constraints

presolving:
(round 1, fast)       29 del vars, 0 del conss, 0 add conss, 0 chg bounds, 0 chg sides, 0 chg coeffs, 0 upgd conss, 0 impls, 492 clqs
(round 2, exhaustive) 29 del vars, 0 del conss, 0 add conss, 0 chg bounds, 0 chg sides, 0 chg coeffs, 13 upgd conss, 0 impls, 492 clqs
(round 3, fast)       29 del vars, 0 del conss, 0 add conss, 0 chg bounds, 0 chg sides, 3 chg coeffs, 13 upgd conss, 0 impls, 492 clqs
(round 4, exhaustive) 29 del vars, 0 del conss, 0 add conss, 0 chg bounds, 0 chg sides, 6 chg coeffs, 13 upgd conss, 0 impls, 492 clqs
(round 5, exhaustive) 29 del vars, 4 del conss, 0 add conss, 0 chg bounds, 0 chg sides, 6 chg coeffs, 13 upgd conss, 0 impls, 492 clqs
presolving (6 rounds: 6 fast, 4 medium, 4 exhaustive):
 29 deleted vars, 4 deleted constraints, 0 added constraints, 0 tightened bounds, 0 added holes, 0 changed sides, 6 changed coefficients
 0 implications, 492 cliques
presolved problem has 490 variables (490 bin, 0 int, 0 impl, 0 cont) and 624 constraints
    140 constraints of type <knapsack>
    440 constraints of type <setppc>
     37 constraints of type <linear>
      7 constraints of type <logicor>
Presolving Time: 0.70
transformed 6/8 original solutions to the transformed problem space

 time | node  | left  |LP iter|LP it/n|mem/heur|mdpt |vars |cons |rows |cuts |sepa|confs|strbr|  dualbound   | primalbound  |  gap   | compl. 
 22.5s|     1 |     0 | 21523 |     - |   100M |   0 | 490 | 624 | 617 |   0 |  0 | 108 |  19 | 3.134824e+04 | 3.161450e+04 |   0.85%| unknown
 22.5s|     1 |     0 | 21523 |     - |   100M |   0 | 490 | 624 | 607 |   0 |  0 | 108 |  19 | 3.134824e+04 | 3.161450e+04 |   0.85%| unknown
 22.7s|     1 |     0 | 21534 |     - |   100M |   0 | 490 | 614 | 609 |   3 |  1 | 108 |  19 | 3.134824e+04 | 3.161450e+04 |   0.85%| unknown
 22.9s|     1 |     0 | 21550 |     - |   100M |   0 | 490 | 613 | 611 |   5 |  2 | 108 |  19 | 3.134824e+04 | 3.161450e+04 |   0.85%| unknown
 23.2s|     1 |     0 | 21566 |     - |   101M |   0 | 490 | 613 | 613 |   7 |  3 | 108 |  19 | 3.134824e+04 | 3.161450e+04 |   0.85%| unknown
 23.4s|     1 |     0 | 21576 |     - |   102M |   0 | 490 | 613 | 614 |   8 |  4 | 108 |  19 | 3.134824e+04 | 3.161450e+04 |   0.85%| unknown
 23.7s|     1 |     0 | 21596 |     - |   103M |   0 | 490 | 613 | 616 |  10 |  5 | 108 |  19 | 3.134824e+04 | 3.161450e+04 |   0.85%| unknown
 24.0s|     1 |     0 | 21617 |     - |   105M |   0 | 490 | 613 | 617 |  11 |  6 | 108 |  19 | 3.134824e+04 | 3.161450e+04 |   0.85%| unknown
 24.2s|     1 |     0 | 21651 |     - |   106M |   0 | 490 | 613 | 618 |  12 |  7 | 108 |  19 | 3.134824e+04 | 3.161450e+04 |   0.85%| unknown
 24.4s|     1 |     0 | 21668 |     - |   107M |   0 | 490 | 613 | 619 |  13 |  8 | 108 |  19 | 3.134824e+04 | 3.161450e+04 |   0.85%| unknown
 24.7s|     1 |     0 | 21694 |     - |   109M |   0 | 490 | 613 | 621 |  15 |  9 | 108 |  19 | 3.134824e+04 | 3.161450e+04 |   0.85%| unknown
 25.0s|     1 |     0 | 21711 |     - |   110M |   0 | 490 | 613 | 528 |  17 | 10 | 108 |  19 | 3.134824e+04 | 3.161450e+04 |   0.85%| unknown
 25.0s|     1 |     0 | 21722 |     - |   110M |   0 | 490 | 613 | 530 |  19 | 11 | 108 |  19 | 3.134824e+04 | 3.161450e+04 |   0.85%| unknown
 25.7s|     1 |     2 | 22896 |     - |   110M |   0 | 490 | 610 | 530 |  19 | 11 | 112 |  38 | 3.134824e+04 | 3.161450e+04 |   0.85%| unknown
 34.2s|   100 |    69 | 34652 | 199.4 |   136M |  21 | 490 | 786 | 502 | 153 |  0 | 289 | 622 | 3.138323e+04 | 3.161450e+04 |   0.74%|   9.36%
 time | node  | left  |LP iter|LP it/n|mem/heur|mdpt |vars |cons |rows |cuts |sepa|confs|strbr|  dualbound   | primalbound  |  gap   | compl. 
*37.9s|   178 |    71 | 39468 | 140.4 |    LP  |  22 | 490 | 936 | 502 | 217 |  5 | 441 | 831 | 3.138760e+04 | 3.154540e+04 |   0.50%|  20.11%
 38.5s|   200 |    69 | 40203 | 128.9 |   136M |  22 | 490 | 944 | 497 | 237 |  0 | 449 | 848 | 3.138760e+04 | 3.154540e+04 |   0.50%|  24.02%
 41.3s|   300 |    59 | 43701 |  98.0 |   139M |  24 | 490 |1009 | 494 | 340 |  2 | 517 | 942 | 3.142572e+04 | 3.154540e+04 |   0.38%|  48.75%
 43.2s|   400 |    47 | 46661 |  81.0 |   140M |  24 | 490 |1072 | 494 | 399 |  2 | 581 |1020 | 3.143157e+04 | 3.154540e+04 |   0.36%|  62.80%
 44.5s|   500 |    35 | 48691 |  69.0 |   145M |  24 | 490 |1123 | 506 | 437 |  4 | 633 |1085 | 3.146055e+04 | 3.154540e+04 |   0.27%|  74.84%
 45.7s|   600 |    17 | 50819 |  61.1 |   147M |  24 | 490 |1143 | 503 | 472 |  0 | 654 |1135 | 3.149865e+04 | 3.154540e+04 |   0.15%|  89.12%

SCIP Status        : problem is solved [optimal solution found]
Solving Time (sec) : 46.07
Solving Nodes      : 621 (total of 626 nodes in 6 runs)
Primal Bound       : +3.15454010941122e+04 (44 solutions)
Dual Bound         : +3.15454010941122e+04
Gap                : 0.00 %
Solve Status: optimal
Solve Time: 46.08 seconds
